NAME          ClpDefau
ROWS
 N  OBJROW
 L  R_308_0
 L  R_308_1
 L  R_308_2
 L  R_308_3
 L  R_308_4
 L  R_308_5
 L  R_308_6
 L  R_308_7
 L  R_308_8
 L  R_308_9
 L  R_308_10
 L  R_308_11
 L  R_308_12
 L  R_308_13
 L  R_308_14
 L  R_308_15
 L  R_308_16
 L  R_308_17
 L  R_308_18
 L  R_308_19
 L  R_308_20
 L  R_308_21
 L  R_308_22
 L  R_308_23
 L  R_308_24
 L  R_308_25
 L  R_308_26
 L  R_308_27
 L  R_308_28
 L  R_308_29
 L  R_308_30
 L  R_308_31
COLUMNS
    x_0       OBJROW     -8.           R_308_0   68.         
    x_0       R_308_1   23.            R_308_2   4.          
    x_0       R_308_3   23.            R_308_4   66.         
    x_0       R_308_5   66.            R_308_6   24.         
    x_0       R_308_8   54.            R_308_9   98.         
    x_0       R_308_10  76.            R_308_11  58.         
    x_0       R_308_12  97.            R_308_13  95.         
    x_0       R_308_14  68.            R_308_15  36.         
    x_0       R_308_17  46.            R_308_18  59.         
    x_0       R_308_20  73.            R_308_21  72.         
    x_0       R_308_22  63.            R_308_23  42.         
    x_0       R_308_27  99.            R_308_29  91.         
    x_0       R_308_31  65.         
    x_1       OBJROW     -12.          R_308_0   76.         
    x_1       R_308_1   94.            R_308_2   66.         
    x_1       R_308_3   88.            R_308_4   10.         
    x_1       R_308_5   44.            R_308_6   25.         
    x_1       R_308_8   74.            R_308_9   35.         
    x_1       R_308_10  88.            R_308_12  67.         
    x_1       R_308_13  35.            R_308_14  27.         
    x_1       R_308_16  92.            R_308_17  8.          
    x_1       R_308_18  23.            R_308_19  4.          
    x_1       R_308_20  9.             R_308_21  94.         
    x_1       R_308_23  17.            R_308_25  24.         
    x_1       R_308_26  1.             R_308_27  6.          
    x_1       R_308_28  32.            R_308_29  5.          
    x_1       R_308_30  79.            R_308_31  96.         
    x_2       OBJROW     -11.          R_308_0   44.         
    x_2       R_308_1   40.            R_308_2   99.         
    x_2       R_308_3   6.             R_308_5   80.         
    x_2       R_308_6   61.            R_308_8   88.         
    x_2       R_308_9   14.            R_308_10  17.         
    x_2       R_308_11  100.           R_308_12  66.         
    x_2       R_308_13  44.            R_308_14  78.         
    x_2       R_308_16  90.            R_308_17  18.         
    x_2       R_308_18  33.            R_308_19  21.         
    x_2       R_308_20  59.            R_308_21  66.         
    x_2       R_308_23  5.             R_308_25  57.         
    x_2       R_308_26  11.            R_308_27  80.         
    x_2       R_308_28  80.            R_308_29  33.         
    x_2       R_308_30  36.            R_308_31  1.          
    x_3       OBJROW     -47.          R_308_0   50.         
    x_3       R_308_1   15.            R_308_2   12.         
    x_3       R_308_3   13.            R_308_4   97.         
    x_3       R_308_5   28.            R_308_6   86.         
    x_3       R_308_7   40.            R_308_8   49.         
    x_3       R_308_9   98.            R_308_11  56.         
    x_3       R_308_12  3.             R_308_13  7.          
    x_3       R_308_16  13.            R_308_17  62.         
    x_3       R_308_18  67.            R_308_20  47.         
    x_3       R_308_21  48.            R_308_22  88.         
    x_3       R_308_23  14.            R_308_24  100.        
    x_3       R_308_25  3.             R_308_27  82.         
    x_3       R_308_28  27.            R_308_30  1.          
    x_3       R_308_31  48.         
    x_4       OBJROW     -22.          R_308_0   93.         
    x_4       R_308_1   97.            R_308_2   15.         
    x_4       R_308_3   51.            R_308_4   18.         
    x_4       R_308_5   51.            R_308_7   16.         
    x_4       R_308_8   43.            R_308_9   28.         
    x_4       R_308_10  4.             R_308_11  61.         
    x_4       R_308_12  93.            R_308_13  38.         
    x_4       R_308_14  59.            R_308_15  48.         
    x_4       R_308_16  68.            R_308_18  94.         
    x_4       R_308_22  30.            R_308_23  77.         
    x_4       R_308_24  55.            R_308_25  90.         
    x_4       R_308_27  74.            R_308_28  46.         
    x_4       R_308_29  70.            R_308_30  54.         
    x_5       OBJROW     -95.          R_308_0   88.         
    x_5       R_308_2   17.            R_308_4   91.         
    x_5       R_308_5   88.            R_308_6   23.         
    x_5       R_308_7   15.            R_308_8   97.         
    x_5       R_308_9   43.            R_308_10  92.         
    x_5       R_308_11  22.            R_308_13  91.         
    x_5       R_308_14  46.            R_308_15  74.         
    x_5       R_308_16  60.            R_308_17  4.          
    x_5       R_308_19  95.            R_308_20  66.         
    x_5       R_308_21  36.            R_308_22  91.         
    x_5       R_308_23  53.            R_308_24  61.         
    x_5       R_308_25  71.            R_308_26  96.         
    x_5       R_308_28  93.            R_308_29  80.         
    x_5       R_308_30  86.            R_308_31  82.         
    x_6       OBJROW     -86.          R_308_1   68.         
    x_6       R_308_2   60.            R_308_3   13.         
    x_6       R_308_4   28.            R_308_5   78.         
    x_6       R_308_6   28.            R_308_8   72.         
    x_6       R_308_9   26.            R_308_10  76.         
    x_6       R_308_11  63.            R_308_13  79.         
    x_6       R_308_14  62.            R_308_15  73.         
    x_6       R_308_16  92.            R_308_17  98.         
    x_6       R_308_18  1.             R_308_20  86.         
    x_6       R_308_21  97.            R_308_22  87.         
    x_6       R_308_24  65.            R_308_25  11.         
    x_6       R_308_26  45.            R_308_27  97.         
    x_6       R_308_30  81.            R_308_31  93.         
    x_7       OBJROW     -40.          R_308_0   21.         
    x_7       R_308_1   60.            R_308_2   20.         
    x_7       R_308_3   72.            R_308_4   1.          
    x_7       R_308_5   69.            R_308_7   27.         
    x_7       R_308_9   84.            R_308_10  89.         
    x_7       R_308_11  39.            R_308_12  41.         
    x_7       R_308_13  83.            R_308_15  83.         
    x_7       R_308_16  12.            R_308_17  27.         
    x_7       R_308_18  68.            R_308_20  65.         
    x_7       R_308_21  40.            R_308_22  59.         
    x_7       R_308_23  67.            R_308_24  15.         
    x_7       R_308_25  49.            R_308_27  46.         
    x_7       R_308_28  59.            R_308_29  64.         
    x_7       R_308_30  38.            R_308_31  18.         
    x_8       OBJROW     -33.          R_308_1   82.         
    x_8       R_308_2   35.            R_308_3   13.         
    x_8       R_308_5   97.            R_308_6   48.         
    x_8       R_308_7   18.            R_308_8   30.         
    x_8       R_308_9   71.            R_308_10  52.         
    x_8       R_308_12  36.            R_308_15  89.         
    x_8       R_308_16  42.            R_308_17  97.         
    x_8       R_308_18  91.            R_308_20  92.         
    x_8       R_308_21  80.            R_308_22  10.         
    x_8       R_308_23  51.            R_308_24  34.         
    x_8       R_308_26  62.            R_308_27  24.         
    x_8       R_308_28  49.            R_308_29  4.          
    x_8       R_308_30  22.            R_308_31  94.         
    x_9       OBJROW     -78.          R_308_0   56.         
    x_9       R_308_1   42.            R_308_2   77.         
    x_9       R_308_3   37.            R_308_4   20.         
    x_9       R_308_5   26.            R_308_7   19.         
    x_9       R_308_8   43.            R_308_9   54.         
    x_9       R_308_10  12.            R_308_11  32.         
    x_9       R_308_12  94.            R_308_13  44.         
    x_9       R_308_15  79.            R_308_16  19.         
    x_9       R_308_17  9.             R_308_18  100.        
    x_9       R_308_19  42.            R_308_20  15.         
    x_9       R_308_21  99.            R_308_22  51.         
    x_9       R_308_23  7.             R_308_24  61.         
    x_9       R_308_25  41.            R_308_26  80.         
    x_9       R_308_27  76.            R_308_28  86.         
    x_10      OBJROW     -28.          R_308_0   53.         
    x_10      R_308_1   58.            R_308_2   14.         
    x_10      R_308_3   76.            R_308_4   88.         
    x_10      R_308_5   23.            R_308_6   40.         
    x_10      R_308_7   91.            R_308_8   14.         
    x_10      R_308_9   29.            R_308_10  19.         
    x_10      R_308_11  12.            R_308_12  84.         
    x_10      R_308_13  61.            R_308_14  62.         
    x_10      R_308_15  4.             R_308_16  65.         
    x_10      R_308_17  7.             R_308_18  1.          
    x_10      R_308_20  88.            R_308_21  31.         
    x_10      R_308_22  63.            R_308_23  70.         
    x_10      R_308_24  14.            R_308_25  7.          
    x_10      R_308_26  81.            R_308_27  80.         
    x_10      R_308_28  51.            R_308_30  65.         
    x_10      R_308_31  87.         
    x_11      OBJROW     -78.          R_308_0   14.         
    x_11      R_308_2   27.            R_308_3   26.         
    x_11      R_308_4   56.            R_308_5   17.         
    x_11      R_308_6   39.            R_308_8   61.         
    x_11      R_308_9   68.            R_308_10  36.         
    x_11      R_308_11  90.            R_308_12  71.         
    x_11      R_308_13  4.             R_308_14  97.         
    x_11      R_308_15  25.            R_308_16  6.          
    x_11      R_308_17  81.            R_308_18  34.         
    x_11      R_308_19  61.            R_308_20  95.         
    x_11      R_308_21  29.            R_308_23  5.          
    x_11      R_308_24  14.            R_308_25  89.         
    x_11      R_308_26  24.            R_308_27  12.         
    x_11      R_308_30  38.         
    x_12      OBJROW     -5.           R_308_0   42.         
    x_12      R_308_1   36.            R_308_3   9.          
    x_12      R_308_4   54.            R_308_5   5.          
    x_12      R_308_6   85.            R_308_8   94.         
    x_12      R_308_9   3.             R_308_10  43.         
    x_12      R_308_11  94.            R_308_12  68.         
    x_12      R_308_13  26.            R_308_14  17.         
    x_12      R_308_15  58.            R_308_18  79.         
    x_12      R_308_19  25.            R_308_20  57.         
    x_12      R_308_21  61.            R_308_23  10.         
    x_12      R_308_24  78.            R_308_25  61.         
    x_12      R_308_26  79.            R_308_27  74.         
    x_12      R_308_29  40.            R_308_31  39.         
    x_13      OBJROW     -75.          R_308_0   4.          
    x_13      R_308_1   41.            R_308_2   69.         
    x_13      R_308_3   93.            R_308_4   57.         
    x_13      R_308_5   61.            R_308_7   75.         
    x_13      R_308_8   28.            R_308_9   78.         
    x_13      R_308_10  93.            R_308_11  76.         
    x_13      R_308_12  36.            R_308_13  64.         
    x_13      R_308_14  31.            R_308_15  39.         
    x_13      R_308_18  80.            R_308_19  43.         
    x_13      R_308_20  90.            R_308_21  53.         
    x_13      R_308_22  28.            R_308_23  34.         
    x_13      R_308_24  18.            R_308_26  56.         
    x_13      R_308_27  59.            R_308_28  61.         
    x_13      R_308_30  31.            R_308_31  69.         
    x_14      OBJROW     -88.          R_308_0   12.         
    x_14      R_308_1   70.            R_308_2   7.          
    x_14      R_308_3   56.            R_308_4   66.         
    x_14      R_308_5   47.            R_308_6   67.         
    x_14      R_308_8   9.             R_308_9   95.         
    x_14      R_308_10  36.            R_308_11  62.         
    x_14      R_308_12  84.            R_308_13  42.         
    x_14      R_308_14  7.             R_308_15  83.         
    x_14      R_308_16  98.            R_308_17  72.         
    x_14      R_308_18  87.            R_308_19  56.         
    x_14      R_308_20  5.             R_308_21  85.         
    x_14      R_308_22  7.             R_308_24  44.         
    x_14      R_308_25  13.            R_308_26  14.         
    x_14      R_308_27  45.            R_308_28  82.         
    x_14      R_308_29  62.            R_308_31  20.         
    x_15      OBJROW     -21.          R_308_0   44.         
    x_15      R_308_1   82.            R_308_2   87.         
    x_15      R_308_4   7.             R_308_6   70.         
    x_15      R_308_7   99.            R_308_8   54.         
    x_15      R_308_9   24.            R_308_10  6.          
    x_15      R_308_11  98.            R_308_14  38.         
    x_15      R_308_15  6.             R_308_17  29.         
    x_15      R_308_18  47.            R_308_19  77.         
    x_15      R_308_21  71.            R_308_22  1.          
    x_15      R_308_23  11.            R_308_24  36.         
    x_15      R_308_25  29.            R_308_26  67.         
    x_15      R_308_29  17.            R_308_30  17.         
    x_15      R_308_31  48.         
    x_16      OBJROW     -56.          R_308_0   74.         
    x_16      R_308_1   57.            R_308_3   83.         
    x_16      R_308_4   64.            R_308_5   17.         
    x_16      R_308_7   33.            R_308_8   20.         
    x_16      R_308_9   73.            R_308_10  57.         
    x_16      R_308_11  25.            R_308_12  35.         
    x_16      R_308_13  46.            R_308_14  5.          
    x_16      R_308_16  4.             R_308_17  4.          
    x_16      R_308_19  73.            R_308_20  35.         
    x_16      R_308_21  92.            R_308_22  67.         
    x_16      R_308_24  85.            R_308_25  69.         
    x_16      R_308_26  37.            R_308_28  54.         
    x_16      R_308_29  88.            R_308_31  84.         
    x_17      OBJROW     -82.          R_308_0   50.         
    x_17      R_308_1   77.            R_308_2   67.         
    x_17      R_308_3   95.            R_308_5   79.         
    x_17      R_308_7   95.            R_308_8   72.         
    x_17      R_308_9   19.            R_308_10  84.         
    x_17      R_308_11  58.            R_308_12  93.         
    x_17      R_308_14  41.            R_308_15  52.         
    x_17      R_308_16  92.            R_308_17  34.         
    x_17      R_308_18  86.            R_308_19  76.         
    x_17      R_308_20  59.            R_308_21  2.          
    x_17      R_308_23  78.            R_308_24  52.         
    x_17      R_308_25  42.            R_308_26  68.         
    x_17      R_308_27  52.            R_308_28  31.         
    x_17      R_308_29  13.            R_308_30  45.         
    x_17      R_308_31  64.         
    x_18      OBJROW     -51.          R_308_0   91.         
    x_18      R_308_1   43.            R_308_2   84.         
    x_18      R_308_6   74.            R_308_7   95.         
    x_18      R_308_8   22.            R_308_9   100.        
    x_18      R_308_11  93.            R_308_12  98.         
    x_18      R_308_13  65.            R_308_14  47.         
    x_18      R_308_15  48.            R_308_17  31.         
    x_18      R_308_18  84.            R_308_19  29.         
    x_18      R_308_20  60.            R_308_21  35.         
    x_18      R_308_22  66.            R_308_24  99.         
    x_18      R_308_25  47.            R_308_26  87.         
    x_18      R_308_27  90.            R_308_28  24.         
    x_18      R_308_30  94.            R_308_31  27.         
    x_19      OBJROW     -93.          R_308_1   80.         
    x_19      R_308_2   100.           R_308_3   95.         
    x_19      R_308_4   51.            R_308_5   3.          
    x_19      R_308_6   15.            R_308_7   74.         
    x_19      R_308_8   49.            R_308_9   60.         
    x_19      R_308_10  99.            R_308_11  83.         
    x_19      R_308_12  19.            R_308_14  68.         
    x_19      R_308_15  38.            R_308_16  4.          
    x_19      R_308_17  72.            R_308_18  54.         
    x_19      R_308_20  40.            R_308_21  26.         
    x_19      R_308_23  59.            R_308_24  20.         
    x_19      R_308_27  40.            R_308_29  25.         
    x_19      R_308_30  29.            R_308_31  16.         
    x_20      OBJROW     -66.          R_308_0   48.         
    x_20      R_308_1   65.            R_308_5   18.         
    x_20      R_308_6   55.            R_308_7   26.         
    x_20      R_308_8   98.            R_308_9   3.          
    x_20      R_308_10  20.            R_308_11  70.         
    x_20      R_308_12  18.            R_308_14  54.         
    x_20      R_308_15  62.            R_308_16  39.         
    x_20      R_308_17  81.            R_308_18  95.         
    x_20      R_308_19  12.            R_308_21  92.         
    x_20      R_308_22  39.            R_308_23  87.         
    x_20      R_308_25  12.            R_308_27  93.         
    x_20      R_308_28  30.         
    x_21      OBJROW     -48.          R_308_0   27.         
    x_21      R_308_1   85.            R_308_2   43.         
    x_21      R_308_3   64.            R_308_4   45.         
    x_21      R_308_6   16.            R_308_7   6.          
    x_21      R_308_8   49.            R_308_9   99.         
    x_21      R_308_10  29.            R_308_11  79.         
    x_21      R_308_12  16.            R_308_13  74.         
    x_21      R_308_14  23.            R_308_15  80.         
    x_21      R_308_16  10.            R_308_17  41.         
    x_21      R_308_18  31.            R_308_19  59.         
    x_21      R_308_20  59.            R_308_21  30.         
    x_21      R_308_22  14.            R_308_23  73.         
    x_21      R_308_24  34.            R_308_25  31.         
    x_21      R_308_26  30.            R_308_27  22.         
    x_21      R_308_31  20.         
    x_22      OBJROW     -70.          R_308_1   98.         
    x_22      R_308_2   1.             R_308_3   1.          
    x_22      R_308_4   5.             R_308_5   1.          
    x_22      R_308_6   49.            R_308_9   35.         
    x_22      R_308_11  67.            R_308_13  73.         
    x_22      R_308_14  62.            R_308_16  38.         
    x_22      R_308_18  54.            R_308_19  74.         
    x_22      R_308_20  55.            R_308_21  42.         
    x_22      R_308_22  73.            R_308_23  53.         
    x_22      R_308_25  12.            R_308_28  68.         
    x_22      R_308_29  21.            R_308_31  14.         
    x_23      OBJROW     -57.          R_308_0   28.         
    x_23      R_308_1   66.            R_308_3   21.         
    x_23      R_308_5   59.            R_308_6   66.         
    x_23      R_308_7   48.            R_308_8   29.         
    x_23      R_308_10  56.            R_308_11  51.         
    x_23      R_308_12  39.            R_308_13  21.         
    x_23      R_308_14  29.            R_308_17  30.         
    x_23      R_308_18  33.            R_308_19  78.         
    x_23      R_308_20  4.             R_308_21  52.         
    x_23      R_308_22  92.            R_308_23  63.         
    x_23      R_308_24  42.            R_308_26  83.         
    x_23      R_308_27  43.            R_308_28  7.          
    x_23      R_308_29  33.            R_308_31  87.         
    x_24      OBJROW     -65.          R_308_0   33.         
    x_24      R_308_1   42.            R_308_2   84.         
    x_24      R_308_3   50.            R_308_4   62.         
    x_24      R_308_5   89.            R_308_7   23.         
    x_24      R_308_8   7.             R_308_9   9.          
    x_24      R_308_11  3.             R_308_12  28.         
    x_24      R_308_14  98.            R_308_15  56.         
    x_24      R_308_18  76.            R_308_19  1.          
    x_24      R_308_20  3.             R_308_21  99.         
    x_24      R_308_23  20.            R_308_24  33.         
    x_24      R_308_25  83.            R_308_26  45.         
    x_24      R_308_28  86.            R_308_30  24.         
    x_24      R_308_31  31.         
    x_25      OBJROW     -35.          R_308_0   21.         
    x_25      R_308_2   70.            R_308_4   14.         
    x_25      R_308_5   32.            R_308_6   86.         
    x_25      R_308_7   23.            R_308_8   1.          
    x_25      R_308_9   16.            R_308_10  83.         
    x_25      R_308_11  43.            R_308_12  83.         
    x_25      R_308_13  17.            R_308_14  32.         
    x_25      R_308_16  89.            R_308_17  28.         
    x_25      R_308_18  1.             R_308_19  73.         
    x_25      R_308_20  48.            R_308_21  100.        
    x_25      R_308_23  85.            R_308_24  40.         
    x_25      R_308_27  18.            R_308_28  46.         
    x_25      R_308_29  80.            R_308_30  77.         
    x_25      R_308_31  83.         
    x_26      OBJROW     -5.           R_308_2   78.         
    x_26      R_308_3   80.            R_308_4   9.          
    x_26      R_308_5   78.            R_308_6   4.          
    x_26      R_308_7   25.            R_308_8   67.         
    x_26      R_308_9   56.            R_308_11  44.         
    x_26      R_308_12  18.            R_308_13  34.         
    x_26      R_308_14  42.            R_308_16  6.          
    x_26      R_308_17  27.            R_308_18  57.         
    x_26      R_308_20  27.            R_308_21  10.         
    x_26      R_308_22  15.            R_308_23  54.         
    x_26      R_308_24  76.            R_308_25  66.         
    x_26      R_308_27  96.            R_308_28  16.         
    x_27      OBJROW     -4.           R_308_0   92.         
    x_27      R_308_1   69.            R_308_3   24.         
    x_27      R_308_4   39.            R_308_5   78.         
    x_27      R_308_6   88.            R_308_9   84.         
    x_27      R_308_11  3.             R_308_12  76.         
    x_27      R_308_13  30.            R_308_15  10.         
    x_27      R_308_16  89.            R_308_17  98.         
    x_27      R_308_19  25.            R_308_20  36.         
    x_27      R_308_23  80.            R_308_24  42.         
    x_27      R_308_25  76.            R_308_27  63.         
    x_27      R_308_28  63.            R_308_29  41.         
    x_27      R_308_30  8.             R_308_31  55.         
    x_28      OBJROW     -47.          R_308_0   86.         
    x_28      R_308_2   31.            R_308_4   83.         
    x_28      R_308_5   8.             R_308_6   68.         
    x_28      R_308_8   58.            R_308_9   96.         
    x_28      R_308_11  31.            R_308_12  98.         
    x_28      R_308_13  89.            R_308_14  16.         
    x_28      R_308_15  36.            R_308_16  17.         
    x_28      R_308_17  56.            R_308_18  5.          
    x_28      R_308_19  18.            R_308_20  6.          
    x_28      R_308_21  27.            R_308_22  92.         
    x_28      R_308_23  98.            R_308_25  45.         
    x_28      R_308_26  91.            R_308_27  71.         
    x_28      R_308_28  21.            R_308_29  37.         
    x_28      R_308_30  81.            R_308_31  35.         
    x_29      OBJROW     -60.          R_308_0   29.         
    x_29      R_308_2   62.            R_308_4   58.         
    x_29      R_308_7   53.            R_308_9   68.         
    x_29      R_308_10  55.            R_308_11  60.         
    x_29      R_308_12  85.            R_308_13  23.         
    x_29      R_308_14  19.            R_308_15  16.         
    x_29      R_308_16  4.             R_308_17  7.          
    x_29      R_308_18  78.            R_308_19  51.         
    x_29      R_308_20  77.            R_308_21  81.         
    x_29      R_308_22  73.            R_308_23  75.         
    x_29      R_308_25  42.            R_308_26  28.         
    x_29      R_308_28  47.            R_308_29  99.         
    x_29      R_308_30  51.            R_308_31  91.         
    x_30      OBJROW     -41.          R_308_0   84.         
    x_30      R_308_1   42.            R_308_2   67.         
    x_30      R_308_3   34.            R_308_5   64.         
    x_30      R_308_6   87.            R_308_7   94.         
    x_30      R_308_8   43.            R_308_9   79.         
    x_30      R_308_11  95.            R_308_12  13.         
    x_30      R_308_13  55.            R_308_14  59.         
    x_30      R_308_16  98.            R_308_18  4.          
    x_30      R_308_19  21.            R_308_20  45.         
    x_30      R_308_21  12.            R_308_23  38.         
    x_30      R_308_25  15.            R_308_26  93.         
    x_30      R_308_27  85.            R_308_29  63.         
    x_30      R_308_30  99.            R_308_31  38.         
    x_31      OBJROW     -49.          R_308_0   67.         
    x_31      R_308_1   72.            R_308_2   50.         
    x_31      R_308_3   11.            R_308_5   14.         
    x_31      R_308_6   62.            R_308_7   88.         
    x_31      R_308_8   96.            R_308_9   58.         
    x_31      R_308_10  35.            R_308_13  71.         
    x_31      R_308_14  69.            R_308_15  54.         
    x_31      R_308_17  11.            R_308_18  87.         
    x_31      R_308_19  4.             R_308_20  5.          
    x_31      R_308_21  100.           R_308_22  90.         
    x_31      R_308_23  86.            R_308_24  65.         
    x_31      R_308_25  49.            R_308_26  1.          
    x_31      R_308_27  37.            R_308_28  3.          
    x_31      R_308_29  42.            R_308_30  73.         
    x_31      R_308_31  87.         
RHS
    RHS       R_308_0   1636.          R_308_1   1452.       
    RHS       R_308_2   1479.          R_308_3   1580.       
    RHS       R_308_4   1344.          R_308_5   1291.       
    RHS       R_308_6   1305.          R_308_7   1332.       
    RHS       R_308_8   1407.          R_308_9   1490.       
    RHS       R_308_10  1616.          R_308_11  1340.       
    RHS       R_308_12  1474.          R_308_13  1438.       
    RHS       R_308_14  1350.          R_308_15  1420.       
    RHS       R_308_16  1382.          R_308_17  1487.       
    RHS       R_308_18  1296.          R_308_19  1624.       
    RHS       R_308_20  1495.          R_308_21  1704.       
    RHS       R_308_22  1491.          R_308_23  1454.       
    RHS       R_308_24  1316.          R_308_25  1387.       
    RHS       R_308_26  1511.          R_308_27  1353.       
    RHS       R_308_28  1632.          R_308_29  1552.       
    RHS       R_308_30  1607.          R_308_31  1697.       
BOUNDS
 UI BOUND     x_0       100.        
 UI BOUND     x_1       100.        
 UI BOUND     x_2       100.        
 UI BOUND     x_3       100.        
 UI BOUND     x_4       100.        
 UI BOUND     x_5       100.        
 UI BOUND     x_6       100.        
 UI BOUND     x_7       100.        
 UI BOUND     x_8       100.        
 UI BOUND     x_9       100.        
 UI BOUND     x_10      100.        
 UI BOUND     x_11      100.        
 UI BOUND     x_12      100.        
 UI BOUND     x_13      100.        
 UI BOUND     x_14      100.        
 UI BOUND     x_15      100.        
 UI BOUND     x_16      100.        
 UI BOUND     x_17      100.        
 UI BOUND     x_18      100.        
 UI BOUND     x_19      100.        
 UI BOUND     x_20      100.        
 UI BOUND     x_21      100.        
 UI BOUND     x_22      100.        
 UI BOUND     x_23      100.        
 UI BOUND     x_24      100.        
 UI BOUND     x_25      100.        
 UI BOUND     x_26      100.        
 UI BOUND     x_27      100.        
 UI BOUND     x_28      100.        
 UI BOUND     x_29      100.        
 UI BOUND     x_30      100.        
 UI BOUND     x_31      100.        
ENDATA
